NAME : BB50.1701047.tour
COMMENT : Cost = 0_1701047
COMMENT : Found by LKH [Keld Helsgaun] Sun Apr 23 15:14:35 2017
TYPE : TOUR
DIMENSION : 104
TOUR_SECTION
1
17
16
27
67
77
66
33
83
21
71
45
95
11
61
20
70
49
99
38
88
8
58
102
12
62
39
89
7
57
44
94
41
91
26
51
76
47
24
97
4
54
101
74
23
13
63
73
14
64
30
80
48
98
28
78
103
22
72
25
75
35
85
3
53
29
79
40
90
32
46
82
96
19
69
34
84
9
2
59
52
104
37
87
5
55
15
42
65
92
43
93
50
100
36
86
10
60
31
81
18
68
6
56
-1
EOF
